eval/18-encs/equiv_enc_729.smt2
; DUP1 DUP3 SHA3 SWAP2 SWAP1 SWAP2 => SWAP1 DUP2 DUP2 SHA3
(set-option :produce-proofs true)
; 
(set-info :status unknown)
(declare-fun storage_t ((_ BitVec 256) (_ BitVec 256) (_ BitVec 256) Int (_ BitVec 256)) (_ BitVec 256))
(declare-fun storage_s ((_ BitVec 256) (_ BitVec 256) (_ BitVec 256) Int (_ BitVec 256)) (_ BitVec 256))
(declare-fun exc_halt_t (Int) Bool)
(declare-fun exc_halt_s (Int) Bool)
(declare-fun sc_t (Int) (_ BitVec 6))
(declare-fun stack_t ((_ BitVec 256) (_ BitVec 256) (_ BitVec 256) Int (_ BitVec 6)) (_ BitVec 256))
(declare-fun stack_s ((_ BitVec 256) (_ BitVec 256) (_ BitVec 256) Int (_ BitVec 6)) (_ BitVec 256))
(declare-fun sc_s (Int) (_ BitVec 6))
(declare-fun used_gas_t ((_ BitVec 256) (_ BitVec 256) (_ BitVec 256) Int) Int)
(declare-fun used_gas_s ((_ BitVec 256) (_ BitVec 256) (_ BitVec 256) Int) Int)
(declare-fun f_SHA3 ((_ BitVec 256) (_ BitVec 256) (_ BitVec 256) (_ BitVec 256) (_ BitVec 256)) (_ BitVec 256))
(assert
 (exists ((x_0 (_ BitVec 256)) (x_1 (_ BitVec 256)) (x_SHA3_0 (_ BitVec 256)) )(let (($x7147 (forall ((w (_ BitVec 256)) )(let ((?x3696 (storage_t x_0 x_1 x_SHA3_0 4 w)))
 (let ((?x8748 (storage_s x_0 x_1 x_SHA3_0 6 w)))
 (= ?x8748 ?x3696))))
 ))
 (let (($x7854 (exc_halt_t 4)))
 (let (($x772 (exc_halt_s 6)))
 (let (($x4404 (= $x772 $x7854)))
 (let (($x1588 (forall ((n (_ BitVec 6)) )(let ((?x10468 (sc_t 4)))
 (let (($x10525 (bvsle ?x10468 n)))
 (let ((?x389 (stack_t x_0 x_1 x_SHA3_0 4 n)))
 (let ((?x1141 (stack_s x_0 x_1 x_SHA3_0 6 n)))
 (let (($x6855 (= ?x1141 ?x389)))
 (or $x6855 $x10525)))))))
 ))
 (let ((?x10468 (sc_t 4)))
 (let ((?x926 (sc_s 6)))
 (let (($x5134 (= ?x926 ?x10468)))
 (let (($x7411 (not (and $x5134 $x1588 $x4404 $x7147))))
 (let ((?x7722 (used_gas_t x_0 x_1 x_SHA3_0 0)))
 (let ((?x3260 (used_gas_s x_0 x_1 x_SHA3_0 0)))
 (let (($x2260 (= ?x3260 ?x7722)))
 (let (($x7325 (forall ((w (_ BitVec 256)) )(let ((?x2207 (storage_t x_0 x_1 x_SHA3_0 0 w)))
 (let ((?x6597 (storage_s x_0 x_1 x_SHA3_0 0 w)))
 (= ?x6597 ?x2207))))
 ))
 (let (($x56 (exc_halt_t 0)))
 (let (($x57 (exc_halt_s 0)))
 (let (($x58 (= $x57 $x56)))
 (let (($x410 (forall ((n (_ BitVec 6)) )(let ((?x63 (sc_t 0)))
 (let (($x11230 (bvsle ?x63 n)))
 (let ((?x4010 (stack_t x_0 x_1 x_SHA3_0 0 n)))
 (let ((?x7935 (stack_s x_0 x_1 x_SHA3_0 0 n)))
 (let (($x6680 (= ?x7935 ?x4010)))
 (or $x6680 $x11230)))))))
 ))
 (let ((?x63 (sc_t 0)))
 (let ((?x72 (sc_s 0)))
 (let (($x73 (= ?x72 ?x63)))
 (let (($x9532 (= $x7854 (or (exc_halt_t 3) (not (bvsle (_ bv0 6) (bvadd (_ bv62 6) (sc_t 3))))))))
 (let (($x11656 (forall ((w (_ BitVec 256)) )(let ((?x3845 (storage_t x_0 x_1 x_SHA3_0 3 w)))
 (let ((?x3696 (storage_t x_0 x_1 x_SHA3_0 4 w)))
 (= ?x3696 ?x3845))))
 ))
 (let (($x8124 (forall ((n (_ BitVec 6)) )(let ((?x11964 (sc_t 3)))
 (let ((?x11398 (bvadd (_ bv62 6) ?x11964)))
 (let (($x11114 (bvsle ?x11398 n)))
 (let ((?x5638 (stack_t x_0 x_1 x_SHA3_0 3 n)))
 (let ((?x389 (stack_t x_0 x_1 x_SHA3_0 4 n)))
 (let (($x4526 (= ?x389 ?x5638)))
 (or $x4526 $x11114))))))))
 ))
 (let ((?x11964 (sc_t 3)))
 (let ((?x1119 (bvadd (_ bv63 6) ?x11964)))
 (let (($x3113 (= ?x10468 ?x1119)))
 (let ((?x4979 (used_gas_t x_0 x_1 x_SHA3_0 4)))
 (let ((?x9337 (stack_t x_0 x_1 x_SHA3_0 3 ?x1119)))
 (let ((?x4064 (f_SHA3 x_0 x_1 x_SHA3_0 ?x9337 (stack_t x_0 x_1 x_SHA3_0 3 (bvadd (_ bv62 6) ?x11964)))))
 (let ((?x7751 (bvadd (_ bv63 6) ?x10468)))
 (let ((?x4984 (stack_t x_0 x_1 x_SHA3_0 4 ?x7751)))
 (let (($x4675 (exc_halt_t 2)))
 (let (($x1189 (not (= ((_ extract 6 6) (bvadd (_ bv1 7) (concat (_ bv0 1) (sc_t 2)))) (_ bv0 1)))))
 (let (($x4112 (exc_halt_t 3)))
 (let (($x4843 (forall ((w (_ BitVec 256)) )(let ((?x5514 (storage_t x_0 x_1 x_SHA3_0 2 w)))
 (let ((?x3845 (storage_t x_0 x_1 x_SHA3_0 3 w)))
 (= ?x3845 ?x5514))))
 ))
 (let (($x2104 (forall ((n (_ BitVec 6)) )(let ((?x11297 (stack_t x_0 x_1 x_SHA3_0 2 n)))
 (let ((?x5638 (stack_t x_0 x_1 x_SHA3_0 3 n)))
 (let (($x6079 (= ?x5638 ?x11297)))
 (or $x6079 (bvsle (bvadd (_ bv62 6) (sc_t 2)) n))))))
 ))
 (let (($x5314 (= ?x11964 (bvadd (_ bv1 6) (sc_t 2)))))
 (let ((?x11119 (used_gas_t x_0 x_1 x_SHA3_0 3)))
 (let ((?x5269 (sc_t 2)))
 (let ((?x4748 (bvadd (_ bv63 6) ?x5269)))
 (let ((?x11701 (stack_t x_0 x_1 x_SHA3_0 2 ?x4748)))
 (let ((?x9343 (bvadd (_ bv62 6) ?x5269)))
 (let ((?x11702 (stack_t x_0 x_1 x_SHA3_0 2 ?x9343)))
 (let (($x11439 (not (= ((_ extract 6 6) (bvadd (_ bv1 7) (concat (_ bv0 1) (sc_t 1)))) (_ bv0 1)))))
 (let (($x8377 (exc_halt_t 1)))
 (let (($x2822 (forall ((w (_ BitVec 256)) )(let ((?x11350 (storage_t x_0 x_1 x_SHA3_0 1 w)))
 (let ((?x5514 (storage_t x_0 x_1 x_SHA3_0 2 w)))
 (= ?x5514 ?x11350))))
 ))
 (let (($x2051 (forall ((n (_ BitVec 6)) )(let ((?x10046 (stack_t x_0 x_1 x_SHA3_0 1 n)))
 (let ((?x11297 (stack_t x_0 x_1 x_SHA3_0 2 n)))
 (let (($x1886 (= ?x11297 ?x10046)))
 (or $x1886 (bvsle (bvadd (_ bv62 6) (sc_t 1)) n))))))
 ))
 (let (($x4930 (= ?x5269 (bvadd (_ bv1 6) (sc_t 1)))))
 (let ((?x9555 (used_gas_t x_0 x_1 x_SHA3_0 2)))
 (let (($x9304 (= ?x9555 (+ 3 (used_gas_t x_0 x_1 x_SHA3_0 1)))))
 (let ((?x7154 (sc_t 1)))
 (let ((?x1746 (bvadd (_ bv63 6) ?x7154)))
 (let ((?x6149 (stack_t x_0 x_1 x_SHA3_0 1 ?x1746)))
 (let ((?x10270 (bvadd (_ bv62 6) ?x7154)))
 (let ((?x3275 (stack_t x_0 x_1 x_SHA3_0 1 ?x10270)))
 (let (($x8446 (= $x8377 (or $x56 (not (bvsle (_ bv0 6) (bvadd (_ bv62 6) ?x63)))))))
 (let (($x5086 (forall ((w (_ BitVec 256)) )(let ((?x2207 (storage_t x_0 x_1 x_SHA3_0 0 w)))
 (let ((?x11350 (storage_t x_0 x_1 x_SHA3_0 1 w)))
 (= ?x11350 ?x2207))))
 ))
 (let (($x11519 (forall ((n (_ BitVec 6)) )(let ((?x63 (sc_t 0)))
 (let ((?x7794 (bvadd (_ bv62 6) ?x63)))
 (let (($x8607 (bvsle ?x7794 n)))
 (let ((?x4010 (stack_t x_0 x_1 x_SHA3_0 0 n)))
 (let ((?x10046 (stack_t x_0 x_1 x_SHA3_0 1 n)))
 (let (($x1870 (= ?x10046 ?x4010)))
 (or $x1870 $x8607))))))))
 ))
 (let ((?x8958 (used_gas_t x_0 x_1 x_SHA3_0 1)))
 (let (($x11731 (= ?x8958 (+ 3 ?x7722))))
 (let (($x11414 (= $x772 (or (exc_halt_s 5) (not (bvsle (_ bv0 6) (bvadd (_ bv61 6) (sc_s 5))))))))
 (let (($x11234 (forall ((w (_ BitVec 256)) )(let ((?x3717 (storage_s x_0 x_1 x_SHA3_0 5 w)))
 (let ((?x8748 (storage_s x_0 x_1 x_SHA3_0 6 w)))
 (= ?x8748 ?x3717))))
 ))
 (let (($x5493 (forall ((n (_ BitVec 6)) )(let ((?x700 (stack_s x_0 x_1 x_SHA3_0 5 n)))
 (let ((?x1141 (stack_s x_0 x_1 x_SHA3_0 6 n)))
 (let (($x9117 (= ?x1141 ?x700)))
 (let ((?x4319 (sc_s 5)))
 (let ((?x3650 (bvadd (_ bv61 6) ?x4319)))
 (let (($x4913 (bvsle ?x3650 n)))
 (or $x4913 $x9117))))))))
 ))
 (let ((?x4319 (sc_s 5)))
 (let (($x7923 (= ?x926 ?x4319)))
 (let (($x11474 (= (used_gas_s x_0 x_1 x_SHA3_0 6) (+ 3 (used_gas_s x_0 x_1 x_SHA3_0 5)))))
 (let ((?x9508 (bvadd (_ bv62 6) ?x4319)))
 (let ((?x11344 (stack_s x_0 x_1 x_SHA3_0 5 ?x9508)))
 (let ((?x6605 (bvadd (_ bv63 6) ?x4319)))
 (let ((?x5377 (stack_s x_0 x_1 x_SHA3_0 5 ?x6605)))
 (let ((?x10429 (bvadd (_ bv63 6) ?x926)))
 (let ((?x6936 (stack_s x_0 x_1 x_SHA3_0 6 ?x10429)))
 (let (($x1862 (exc_halt_s 5)))
 (let (($x7458 (= $x1862 (or (exc_halt_s 4) (not (bvsle (_ bv0 6) (bvadd (_ bv62 6) (sc_s 4))))))))
 (let (($x4274 (forall ((w (_ BitVec 256)) )(let ((?x10575 (storage_s x_0 x_1 x_SHA3_0 4 w)))
 (let ((?x3717 (storage_s x_0 x_1 x_SHA3_0 5 w)))
 (= ?x3717 ?x10575))))
 ))
 (let (($x2610 (forall ((n (_ BitVec 6)) )(let ((?x4305 (sc_s 4)))
 (let ((?x5150 (bvadd (_ bv62 6) ?x4305)))
 (let (($x6839 (bvsle ?x5150 n)))
 (let ((?x8111 (stack_s x_0 x_1 x_SHA3_0 4 n)))
 (let ((?x700 (stack_s x_0 x_1 x_SHA3_0 5 n)))
 (or (= ?x700 ?x8111) $x6839)))))))
 ))
 (let ((?x4305 (sc_s 4)))
 (let (($x8598 (= ?x4319 ?x4305)))
 (let ((?x1838 (used_gas_s x_0 x_1 x_SHA3_0 5)))
 (let (($x11942 (= ?x1838 (+ 3 (used_gas_s x_0 x_1 x_SHA3_0 4)))))
 (let (($x7172 (exc_halt_s 4)))
 (let (($x8088 (= $x7172 (or (exc_halt_s 3) (not (bvsle (_ bv0 6) (bvadd (_ bv61 6) (sc_s 3))))))))
 (let (($x11858 (forall ((w (_ BitVec 256)) )(let ((?x2479 (storage_s x_0 x_1 x_SHA3_0 3 w)))
 (let ((?x10575 (storage_s x_0 x_1 x_SHA3_0 4 w)))
 (= ?x10575 ?x2479))))
 ))
 (let (($x2931 (forall ((n (_ BitVec 6)) )(let ((?x7043 (stack_s x_0 x_1 x_SHA3_0 3 n)))
 (let ((?x8111 (stack_s x_0 x_1 x_SHA3_0 4 n)))
 (or (bvsle (bvadd (_ bv61 6) (sc_s 3)) n) (= ?x8111 ?x7043)))))
 ))
 (let ((?x275 (sc_s 3)))
 (let (($x3925 (= ?x4305 ?x275)))
 (let ((?x7055 (used_gas_s x_0 x_1 x_SHA3_0 4)))
 (let (($x2622 (= ?x7055 (+ 3 (used_gas_s x_0 x_1 x_SHA3_0 3)))))
 (let ((?x10635 (bvadd (_ bv62 6) ?x275)))
 (let ((?x1211 (stack_s x_0 x_1 x_SHA3_0 3 ?x10635)))
 (let ((?x5150 (bvadd (_ bv62 6) ?x4305)))
 (let ((?x7949 (stack_s x_0 x_1 x_SHA3_0 4 ?x5150)))
 (let ((?x6799 (bvadd (_ bv63 6) ?x275)))
 (let ((?x8101 (stack_s x_0 x_1 x_SHA3_0 3 ?x6799)))
 (let ((?x2689 (bvadd (_ bv61 6) ?x275)))
 (let ((?x144 (stack_s x_0 x_1 x_SHA3_0 3 ?x2689)))
 (let ((?x10368 (bvadd (_ bv63 6) ?x4305)))
 (let ((?x8827 (stack_s x_0 x_1 x_SHA3_0 4 ?x10368)))
 (let (($x3351 (= ?x8827 ?x144)))
 (let (($x292 (exc_halt_s 3)))
 (let (($x4119 (= $x292 (or (exc_halt_s 2) (not (bvsle (_ bv0 6) (bvadd (_ bv62 6) (sc_s 2))))))))
 (let (($x10484 (forall ((w (_ BitVec 256)) )(let ((?x11058 (storage_s x_0 x_1 x_SHA3_0 2 w)))
 (let ((?x2479 (storage_s x_0 x_1 x_SHA3_0 3 w)))
 (= ?x2479 ?x11058))))
 ))
 (let (($x8916 (forall ((n (_ BitVec 6)) )(let ((?x218 (sc_s 2)))
 (let ((?x10340 (bvadd (_ bv62 6) ?x218)))
 (let (($x9346 (bvsle ?x10340 n)))
 (let ((?x5495 (stack_s x_0 x_1 x_SHA3_0 2 n)))
 (let ((?x7043 (stack_s x_0 x_1 x_SHA3_0 3 n)))
 (let (($x6832 (= ?x7043 ?x5495)))
 (or $x6832 $x9346))))))))
 ))
 (let ((?x218 (sc_s 2)))
 (let ((?x7644 (bvadd (_ bv63 6) ?x218)))
 (let (($x2683 (= ?x275 ?x7644)))
 (let ((?x5241 (used_gas_s x_0 x_1 x_SHA3_0 3)))
 (let ((?x989 (stack_s x_0 x_1 x_SHA3_0 2 ?x7644)))
 (let ((?x1470 (f_SHA3 x_0 x_1 x_SHA3_0 ?x989 (stack_s x_0 x_1 x_SHA3_0 2 (bvadd (_ bv62 6) ?x218)))))
 (let (($x1394 (not (= ((_ extract 6 6) (bvadd (_ bv1 7) (concat (_ bv0 1) (sc_s 1)))) (_ bv0 1)))))
 (let (($x189 (exc_halt_s 1)))
 (let (($x247 (exc_halt_s 2)))
 (let (($x5901 (= $x247 (or $x189 $x1394 (not (bvsle (_ bv0 6) (bvadd (_ bv61 6) (sc_s 1))))))))
 (let (($x3880 (forall ((w (_ BitVec 256)) )(let ((?x10090 (storage_s x_0 x_1 x_SHA3_0 1 w)))
 (let ((?x11058 (storage_s x_0 x_1 x_SHA3_0 2 w)))
 (= ?x11058 ?x10090))))
 ))
 (let (($x2330 (forall ((n (_ BitVec 6)) )(let ((?x11883 (stack_s x_0 x_1 x_SHA3_0 1 n)))
 (let ((?x5495 (stack_s x_0 x_1 x_SHA3_0 2 n)))
 (let (($x2545 (= ?x5495 ?x11883)))
 (let ((?x154 (sc_s 1)))
 (let ((?x6126 (bvadd (_ bv61 6) ?x154)))
 (let (($x462 (bvsle ?x6126 n)))
 (or $x462 $x2545))))))))
 ))
 (let (($x4361 (= ?x218 (bvadd (_ bv1 6) (sc_s 1)))))
 (let ((?x10568 (used_gas_s x_0 x_1 x_SHA3_0 2)))
 (let ((?x154 (sc_s 1)))
 (let ((?x3077 (bvadd (_ bv63 6) ?x154)))
 (let ((?x6795 (stack_s x_0 x_1 x_SHA3_0 1 ?x3077)))
 (let ((?x7360 (bvadd (_ bv62 6) ?x154)))
 (let ((?x6171 (stack_s x_0 x_1 x_SHA3_0 1 ?x7360)))
 (let ((?x6126 (bvadd (_ bv61 6) ?x154)))
 (let ((?x8723 (stack_s x_0 x_1 x_SHA3_0 1 ?x6126)))
 (let (($x2679 (not (= ((_ extract 6 6) (bvadd (_ bv1 7) (concat (_ bv0 1) ?x72))) (_ bv0 1)))))
 (let (($x5162 (= $x189 (or $x57 $x2679 (not (bvsle (_ bv0 6) (bvadd (_ bv63 6) ?x72)))))))
 (let (($x2012 (forall ((w (_ BitVec 256)) )(let ((?x6597 (storage_s x_0 x_1 x_SHA3_0 0 w)))
 (let ((?x10090 (storage_s x_0 x_1 x_SHA3_0 1 w)))
 (= ?x10090 ?x6597))))
 ))
 (let (($x3966 (forall ((n (_ BitVec 6)) )(let ((?x7935 (stack_s x_0 x_1 x_SHA3_0 0 n)))
 (let ((?x11883 (stack_s x_0 x_1 x_SHA3_0 1 n)))
 (let (($x4964 (= ?x11883 ?x7935)))
 (let ((?x72 (sc_s 0)))
 (let ((?x10927 (bvadd (_ bv63 6) ?x72)))
 (let (($x2656 (bvsle ?x10927 n)))
 (or $x2656 $x4964))))))))
 ))
 (let (($x2340 (= ?x154 (bvadd (_ bv1 6) ?x72))))
 (let ((?x1171 (used_gas_s x_0 x_1 x_SHA3_0 1)))
 (let (($x7204 (= ?x1171 (+ 3 ?x3260))))
 (let ((?x10927 (bvadd (_ bv63 6) ?x72)))
 (let ((?x4659 (stack_s x_0 x_1 x_SHA3_0 0 ?x10927)))
 (let (($x4492 (forall ((w0 (_ BitVec 256)) (w1 (_ BitVec 256)) )(let (($x2047 (and (= (stack_s x_0 x_1 x_SHA3_0 2 (bvadd (_ bv63 6) (sc_s 2))) w0) (= (stack_s x_0 x_1 x_SHA3_0 2 (bvadd (_ bv62 6) (sc_s 2))) w1))))
 (let ((?x3281 (f_SHA3 x_0 x_1 x_SHA3_0 w0 w1)))
 (= ?x3281 (ite $x2047 x_SHA3_0 (_ bv0 256))))))
 ))
 (let (($x3912 (forall ((w (_ BitVec 256)) )(let ((?x6597 (storage_s x_0 x_1 x_SHA3_0 0 w)))
 (= ?x6597 (_ bv0 256))))
 ))
 (let (($x7568 (= ?x3260 0)))
 (let (($x5230 (not $x57)))
 (let (($x4428 (= (stack_s x_0 x_1 x_SHA3_0 0 (_ bv1 6)) x_1)))
 (let (($x6176 (= (stack_s x_0 x_1 x_SHA3_0 0 (_ bv0 6)) x_0)))
 (let (($x11128 (= ?x72 (_ bv2 6))))
 (and $x11128 $x6176 $x4428 $x5230 $x7568 $x3912 $x4492 (= ?x6795 ?x4659) (= (stack_s x_0 x_1 x_SHA3_0 1 ?x10927) ?x4659) $x7204 $x2340 $x3966 $x2012 $x5162 (= ?x989 ?x8723) (= (stack_s x_0 x_1 x_SHA3_0 2 ?x6126) ?x8723) (= (stack_s x_0 x_1 x_SHA3_0 2 ?x7360) ?x6171) (= (stack_s x_0 x_1 x_SHA3_0 2 ?x3077) ?x6795) (= ?x10568 (+ 3 ?x1171)) $x4361 $x2330 $x3880 $x5901 (= ?x8101 ?x1470) (= ?x5241 (+ 30 ?x10568)) $x2683 $x8916 $x10484 $x4119 $x3351 (= (stack_s x_0 x_1 x_SHA3_0 4 (bvadd (_ bv61 6) ?x4305)) ?x8101) (= ?x7949 ?x1211) $x2622 $x3925 $x2931 $x11858 $x8088 (= ?x5377 ?x7949) (= ?x11344 ?x8827) $x11942 $x8598 $x2610 $x4274 $x7458 (= ?x6936 (stack_s x_0 x_1 x_SHA3_0 5 (bvadd (_ bv61 6) ?x4319))) (= (stack_s x_0 x_1 x_SHA3_0 6 (bvadd (_ bv61 6) ?x926)) ?x5377) (= (stack_s x_0 x_1 x_SHA3_0 6 (bvadd (_ bv62 6) ?x926)) ?x11344) $x11474 $x7923 $x5493 $x11234 $x11414 (= ?x6149 (stack_t x_0 x_1 x_SHA3_0 0 (bvadd (_ bv62 6) ?x63))) (= ?x3275 (stack_t x_0 x_1 x_SHA3_0 0 (bvadd (_ bv63 6) ?x63))) $x11731 (= ?x7154 ?x63) $x11519 $x5086 $x8446 (= ?x11701 ?x3275) (= (stack_t x_0 x_1 x_SHA3_0 2 ?x10270) ?x3275) (= (stack_t x_0 x_1 x_SHA3_0 2 ?x1746) ?x6149) $x9304 $x4930 $x2051 $x2822 (= $x4675 (or (not (bvsle (_ bv0 6) ?x10270)) $x8377 $x11439)) (= ?x9337 ?x11702) (= (stack_t x_0 x_1 x_SHA3_0 3 ?x9343) ?x11702) (= (stack_t x_0 x_1 x_SHA3_0 3 ?x4748) ?x11701) (= ?x11119 (+ 3 ?x9555)) $x5314 $x2104 $x4843 (= $x4112 (or $x1189 (not (bvsle (_ bv0 6) ?x9343)) $x4675)) (= ?x4984 ?x4064) (= ?x4979 (+ 30 ?x11119)) $x3113 $x8124 $x11656 $x9532 $x73 $x410 $x58 $x7325 $x2260 $x7411))))))))))))))))))))))))))))))))))))))))))))))))))))))))))))))))))))))))))))))))))))))))))))))))))))))))))))))))))))))))))))))))))))))))))))))
 )
(check-sat)
(get-proof)
